instances/instance_average_0.lp
day(1..5).
time_slot(1..60).
patient(1..5).
visit(4, "Blood Sample").
duration(4, 1).
visit(1, "Radiography").
duration(1, 1).
visit(3, "NMR").
duration(3, 3).
required(1, 3).
required(2, 4).
required(2, 1).
required(2, 3).
required(3, 4).
required(3, 3).
required(4, 4).
required(4, 1).
required(5, 4).
required(5, 3).